c Standarized MaxSat Instance
c{
c "sha1sum": "1fe332b6acb9b49548d4d02742dba08182e9be3d",
c "nvars": 40,
c "ncls": 770,
c "nhards": 0,
c "nhard_len_stats":
c    { "min": 0, "max": 0, "ave": 0.00,
c      "stddev": 0.00 },
c "nsofts": 770,
c "nsoft_len_stats":
c    { "min": 2, "max": 2, "ave": 2.00,
c      "stddev": 0.00 },
c "nsoft_wts": 10,
c "soft_wt_stats":
c    { "min": 1, "max": 10, "ave": 5.68,
c      "stddev": 2.87 }
c}
c------------------------------------------------------------
c FILE:  brock200_2.b
c
c Graph Generator
c
c By: Mark Brockington (brock@cs.ualberta.ca)
c and Joe Culberson (joe@cs.ualberta.ca)
c
c Graph Size:200, Clique Size: 12
c Seed:20, Edge Density:  0.50000
c Depth 1 Hiding
c
c Clique Elements are:
c 26 120 119 157 69 182 47 148 104 134 
c 54 144 
c
c Estimated Size of Uncompressed File:   0.1MB
c
p wcnf 40 770 4371
9 1 3 0
9 -1 -3 0
4 1 5 0
4 -1 -5 0
8 1 6 0
8 -1 -6 0
8 1 11 0
8 -1 -11 0
10 1 13 0
10 -1 -13 0
2 1 15 0
2 -1 -15 0
4 1 19 0
4 -1 -19 0
8 1 22 0
8 -1 -22 0
3 1 23 0
3 -1 -23 0
6 1 26 0
6 -1 -26 0
5 1 29 0
5 -1 -29 0
7 1 30 0
7 -1 -30 0
4 1 31 0
4 -1 -31 0
6 1 33 0
6 -1 -33 0
10 1 35 0
10 -1 -35 0
10 1 38 0
10 -1 -38 0
7 1 39 0
7 -1 -39 0
8 2 3 0
8 -2 -3 0
2 2 5 0
2 -2 -5 0
7 2 6 0
7 -2 -6 0
1 2 11 0
1 -2 -11 0
3 2 13 0
3 -2 -13 0
2 2 15 0
2 -2 -15 0
9 2 17 0
9 -2 -17 0
2 2 19 0
2 -2 -19 0
5 2 20 0
5 -2 -20 0
2 2 27 0
2 -2 -27 0
2 2 28 0
2 -2 -28 0
10 2 30 0
10 -2 -30 0
3 2 32 0
3 -2 -32 0
6 2 33 0
6 -2 -33 0
9 2 35 0
9 -2 -35 0
7 2 36 0
7 -2 -36 0
3 2 37 0
3 -2 -37 0
7 2 39 0
7 -2 -39 0
6 3 5 0
6 -3 -5 0
5 3 7 0
5 -3 -7 0
10 3 8 0
10 -3 -8 0
3 3 11 0
3 -3 -11 0
8 3 12 0
8 -3 -12 0
6 3 14 0
6 -3 -14 0
8 3 15 0
8 -3 -15 0
5 3 16 0
5 -3 -16 0
9 3 17 0
9 -3 -17 0
3 3 18 0
3 -3 -18 0
4 3 19 0
4 -3 -19 0
9 3 22 0
9 -3 -22 0
10 3 24 0
10 -3 -24 0
1 3 27 0
1 -3 -27 0
10 3 29 0
10 -3 -29 0
6 3 30 0
6 -3 -30 0
1 3 33 0
1 -3 -33 0
2 3 35 0
2 -3 -35 0
7 3 40 0
7 -3 -40 0
9 4 7 0
9 -4 -7 0
4 4 8 0
4 -4 -8 0
1 4 9 0
1 -4 -9 0
1 4 11 0
1 -4 -11 0
5 4 12 0
5 -4 -12 0
1 4 16 0
1 -4 -16 0
3 4 17 0
3 -4 -17 0
10 4 18 0
10 -4 -18 0
10 4 20 0
10 -4 -20 0
9 4 24 0
9 -4 -24 0
3 4 26 0
3 -4 -26 0
6 4 29 0
6 -4 -29 0
4 4 31 0
4 -4 -31 0
8 4 32 0
8 -4 -32 0
6 4 35 0
6 -4 -35 0
7 4 36 0
7 -4 -36 0
6 4 37 0
6 -4 -37 0
1 4 38 0
1 -4 -38 0
5 4 39 0
5 -4 -39 0
10 4 40 0
10 -4 -40 0
10 5 9 0
10 -5 -9 0
8 5 10 0
8 -5 -10 0
3 5 15 0
3 -5 -15 0
8 5 16 0
8 -5 -16 0
7 5 17 0
7 -5 -17 0
4 5 21 0
4 -5 -21 0
7 5 27 0
7 -5 -27 0
2 5 29 0
2 -5 -29 0
5 5 31 0
5 -5 -31 0
9 5 32 0
9 -5 -32 0
9 5 34 0
9 -5 -34 0
4 5 36 0
4 -5 -36 0
3 5 38 0
3 -5 -38 0
9 5 39 0
9 -5 -39 0
4 6 7 0
4 -6 -7 0
7 6 9 0
7 -6 -9 0
10 6 10 0
10 -6 -10 0
6 6 11 0
6 -6 -11 0
7 6 12 0
7 -6 -12 0
9 6 13 0
9 -6 -13 0
5 6 15 0
5 -6 -15 0
10 6 20 0
10 -6 -20 0
4 6 21 0
4 -6 -21 0
9 6 22 0
9 -6 -22 0
7 6 23 0
7 -6 -23 0
10 6 25 0
10 -6 -25 0
5 6 26 0
5 -6 -26 0
3 6 30 0
3 -6 -30 0
10 6 33 0
10 -6 -33 0
10 6 34 0
10 -6 -34 0
2 6 36 0
2 -6 -36 0
9 6 37 0
9 -6 -37 0
7 6 38 0
7 -6 -38 0
5 6 39 0
5 -6 -39 0
7 6 40 0
7 -6 -40 0
3 7 9 0
3 -7 -9 0
8 7 11 0
8 -7 -11 0
4 7 16 0
4 -7 -16 0
5 7 17 0
5 -7 -17 0
3 7 18 0
3 -7 -18 0
2 7 20 0
2 -7 -20 0
3 7 24 0
3 -7 -24 0
6 7 25 0
6 -7 -25 0
5 7 26 0
5 -7 -26 0
2 7 27 0
2 -7 -27 0
10 7 29 0
10 -7 -29 0
2 7 32 0
2 -7 -32 0
2 7 35 0
2 -7 -35 0
5 7 36 0
5 -7 -36 0
8 7 37 0
8 -7 -37 0
10 7 38 0
10 -7 -38 0
10 8 9 0
10 -8 -9 0
7 8 11 0
7 -8 -11 0
4 8 12 0
4 -8 -12 0
8 8 15 0
8 -8 -15 0
4 8 17 0
4 -8 -17 0
3 8 18 0
3 -8 -18 0
3 8 23 0
3 -8 -23 0
6 8 29 0
6 -8 -29 0
3 8 30 0
3 -8 -30 0
2 8 31 0
2 -8 -31 0
8 8 33 0
8 -8 -33 0
2 8 35 0
2 -8 -35 0
8 8 36 0
8 -8 -36 0
2 8 38 0
2 -8 -38 0
8 8 39 0
8 -8 -39 0
1 8 40 0
1 -8 -40 0
10 9 11 0
10 -9 -11 0
1 9 12 0
1 -9 -12 0
6 9 15 0
6 -9 -15 0
2 9 16 0
2 -9 -16 0
3 9 22 0
3 -9 -22 0
8 9 23 0
8 -9 -23 0
8 9 24 0
8 -9 -24 0
7 9 27 0
7 -9 -27 0
10 9 29 0
10 -9 -29 0
7 9 33 0
7 -9 -33 0
8 9 34 0
8 -9 -34 0
1 9 35 0
1 -9 -35 0
2 10 13 0
2 -10 -13 0
6 10 16 0
6 -10 -16 0
1 10 17 0
1 -10 -17 0
1 10 18 0
1 -10 -18 0
3 10 19 0
3 -10 -19 0
5 10 20 0
5 -10 -20 0
9 10 21 0
9 -10 -21 0
6 10 22 0
6 -10 -22 0
8 10 24 0
8 -10 -24 0
1 10 28 0
1 -10 -28 0
2 10 33 0
2 -10 -33 0
10 10 34 0
10 -10 -34 0
3 10 37 0
3 -10 -37 0
9 10 38 0
9 -10 -38 0
2 10 40 0
2 -10 -40 0
10 11 12 0
10 -11 -12 0
1 11 13 0
1 -11 -13 0
9 11 14 0
9 -11 -14 0
1 11 18 0
1 -11 -18 0
1 11 19 0
1 -11 -19 0
10 11 20 0
10 -11 -20 0
6 11 21 0
6 -11 -21 0
2 11 24 0
2 -11 -24 0
2 11 25 0
2 -11 -25 0
4 11 26 0
4 -11 -26 0
10 11 27 0
10 -11 -27 0
9 11 29 0
9 -11 -29 0
4 11 31 0
4 -11 -31 0
6 11 32 0
6 -11 -32 0
6 11 33 0
6 -11 -33 0
5 11 34 0
5 -11 -34 0
7 12 13 0
7 -12 -13 0
1 12 14 0
1 -12 -14 0
6 12 16 0
6 -12 -16 0
8 12 17 0
8 -12 -17 0
4 12 18 0
4 -12 -18 0
10 12 19 0
10 -12 -19 0
6 12 20 0
6 -12 -20 0
9 12 24 0
9 -12 -24 0
8 12 25 0
8 -12 -25 0
7 12 27 0
7 -12 -27 0
1 12 31 0
1 -12 -31 0
8 12 35 0
8 -12 -35 0
9 12 36 0
9 -12 -36 0
10 12 37 0
10 -12 -37 0
9 12 38 0
9 -12 -38 0
9 12 39 0
9 -12 -39 0
10 13 17 0
10 -13 -17 0
8 13 19 0
8 -13 -19 0
10 13 20 0
10 -13 -20 0
10 13 22 0
10 -13 -22 0
7 13 23 0
7 -13 -23 0
5 13 25 0
5 -13 -25 0
2 13 26 0
2 -13 -26 0
9 13 30 0
9 -13 -30 0
9 13 31 0
9 -13 -31 0
1 13 33 0
1 -13 -33 0
7 13 35 0
7 -13 -35 0
3 13 38 0
3 -13 -38 0
7 13 39 0
7 -13 -39 0
3 14 16 0
3 -14 -16 0
8 14 21 0
8 -14 -21 0
4 14 22 0
4 -14 -22 0
4 14 25 0
4 -14 -25 0
3 14 26 0
3 -14 -26 0
1 14 27 0
1 -14 -27 0
7 14 34 0
7 -14 -34 0
3 14 37 0
3 -14 -37 0
7 14 38 0
7 -14 -38 0
6 14 39 0
6 -14 -39 0
10 15 16 0
10 -15 -16 0
3 15 19 0
3 -15 -19 0
6 15 20 0
6 -15 -20 0
8 15 21 0
8 -15 -21 0
2 15 24 0
2 -15 -24 0
5 15 25 0
5 -15 -25 0
6 15 27 0
6 -15 -27 0
10 15 28 0
10 -15 -28 0
5 15 29 0
5 -15 -29 0
4 15 31 0
4 -15 -31 0
9 15 32 0
9 -15 -32 0
5 15 33 0
5 -15 -33 0
1 15 35 0
1 -15 -35 0
4 15 39 0
4 -15 -39 0
6 15 40 0
6 -15 -40 0
9 16 18 0
9 -16 -18 0
3 16 19 0
3 -16 -19 0
7 16 22 0
7 -16 -22 0
5 16 24 0
5 -16 -24 0
5 16 26 0
5 -16 -26 0
4 16 29 0
4 -16 -29 0
8 16 32 0
8 -16 -32 0
2 16 33 0
2 -16 -33 0
7 16 34 0
7 -16 -34 0
1 16 35 0
1 -16 -35 0
5 16 36 0
5 -16 -36 0
7 16 40 0
7 -16 -40 0
7 17 18 0
7 -17 -18 0
7 17 19 0
7 -17 -19 0
4 17 20 0
4 -17 -20 0
2 17 26 0
2 -17 -26 0
7 17 27 0
7 -17 -27 0
7 17 28 0
7 -17 -28 0
8 17 29 0
8 -17 -29 0
4 17 30 0
4 -17 -30 0
8 17 31 0
8 -17 -31 0
3 17 32 0
3 -17 -32 0
10 17 35 0
10 -17 -35 0
7 17 39 0
7 -17 -39 0
7 18 19 0
7 -18 -19 0
3 18 20 0
3 -18 -20 0
6 18 22 0
6 -18 -22 0
1 18 23 0
1 -18 -23 0
3 18 24 0
3 -18 -24 0
9 18 25 0
9 -18 -25 0
7 18 26 0
7 -18 -26 0
1 18 27 0
1 -18 -27 0
2 18 30 0
2 -18 -30 0
4 18 33 0
4 -18 -33 0
6 18 35 0
6 -18 -35 0
6 18 37 0
6 -18 -37 0
7 18 38 0
7 -18 -38 0
3 19 20 0
3 -19 -20 0
8 19 24 0
8 -19 -24 0
3 19 25 0
3 -19 -25 0
4 19 27 0
4 -19 -27 0
2 19 33 0
2 -19 -33 0
10 19 36 0
10 -19 -36 0
1 19 37 0
1 -19 -37 0
9 19 40 0
9 -19 -40 0
4 20 22 0
4 -20 -22 0
2 20 23 0
2 -20 -23 0
5 20 28 0
5 -20 -28 0
10 20 30 0
10 -20 -30 0
10 20 31 0
10 -20 -31 0
8 20 32 0
8 -20 -32 0
7 20 34 0
7 -20 -34 0
2 20 35 0
2 -20 -35 0
7 20 37 0
7 -20 -37 0
4 21 22 0
4 -21 -22 0
8 21 23 0
8 -21 -23 0
10 21 25 0
10 -21 -25 0
10 21 26 0
10 -21 -26 0
9 21 28 0
9 -21 -28 0
3 21 30 0
3 -21 -30 0
8 21 34 0
8 -21 -34 0
6 21 38 0
6 -21 -38 0
3 21 40 0
3 -21 -40 0
10 22 24 0
10 -22 -24 0
10 22 25 0
10 -22 -25 0
9 22 26 0
9 -22 -26 0
5 22 28 0
5 -22 -28 0
6 22 29 0
6 -22 -29 0
2 22 30 0
2 -22 -30 0
3 22 33 0
3 -22 -33 0
9 22 34 0
9 -22 -34 0
5 22 35 0
5 -22 -35 0
5 22 36 0
5 -22 -36 0
9 22 38 0
9 -22 -38 0
5 22 40 0
5 -22 -40 0
3 23 24 0
3 -23 -24 0
2 23 25 0
2 -23 -25 0
7 23 27 0
7 -23 -27 0
8 23 29 0
8 -23 -29 0
2 23 32 0
2 -23 -32 0
7 23 33 0
7 -23 -33 0
5 23 34 0
5 -23 -34 0
9 23 35 0
9 -23 -35 0
8 23 37 0
8 -23 -37 0
2 23 40 0
2 -23 -40 0
3 24 25 0
3 -24 -25 0
5 24 26 0
5 -24 -26 0
2 24 28 0
2 -24 -28 0
2 24 29 0
2 -24 -29 0
4 24 31 0
4 -24 -31 0
4 24 32 0
4 -24 -32 0
10 24 33 0
10 -24 -33 0
10 24 35 0
10 -24 -35 0
7 24 37 0
7 -24 -37 0
9 24 38 0
9 -24 -38 0
9 24 39 0
9 -24 -39 0
5 25 26 0
5 -25 -26 0
4 25 30 0
4 -25 -30 0
4 25 31 0
4 -25 -31 0
7 25 32 0
7 -25 -32 0
7 25 33 0
7 -25 -33 0
3 25 37 0
3 -25 -37 0
2 26 27 0
2 -26 -27 0
1 26 29 0
1 -26 -29 0
2 26 31 0
2 -26 -31 0
7 26 33 0
7 -26 -33 0
4 26 34 0
4 -26 -34 0
3 26 35 0
3 -26 -35 0
4 26 37 0
4 -26 -37 0
1 26 39 0
1 -26 -39 0
5 27 30 0
5 -27 -30 0
10 27 31 0
10 -27 -31 0
6 27 35 0
6 -27 -35 0
3 27 37 0
3 -27 -37 0
7 27 39 0
7 -27 -39 0
8 28 31 0
8 -28 -31 0
5 28 33 0
5 -28 -33 0
2 28 34 0
2 -28 -34 0
9 28 35 0
9 -28 -35 0
7 28 36 0
7 -28 -36 0
6 28 37 0
6 -28 -37 0
3 28 40 0
3 -28 -40 0
6 29 36 0
6 -29 -36 0
5 29 38 0
5 -29 -38 0
9 30 31 0
9 -30 -31 0
4 30 36 0
4 -30 -36 0
3 30 37 0
3 -30 -37 0
4 30 39 0
4 -30 -39 0
8 31 36 0
8 -31 -36 0
7 31 37 0
7 -31 -37 0
10 31 38 0
10 -31 -38 0
4 31 40 0
4 -31 -40 0
9 32 34 0
9 -32 -34 0
2 32 36 0
2 -32 -36 0
5 32 39 0
5 -32 -39 0
1 32 40 0
1 -32 -40 0
8 33 35 0
8 -33 -35 0
8 33 37 0
8 -33 -37 0
3 33 38 0
3 -33 -38 0
2 34 37 0
2 -34 -37 0
9 34 39 0
9 -34 -39 0
8 35 38 0
8 -35 -38 0
1 35 39 0
1 -35 -39 0
5 35 40 0
5 -35 -40 0
10 36 37 0
10 -36 -37 0
8 37 39 0
8 -37 -39 0
3 37 40 0
3 -37 -40 0
